c Problem hex_hein_4x4_04
c Taken from the QBFEVAL19 datset

p cnf 74 191
e 1 2 3 4 5 6 0
a 7 8 9 10 11 12 0
e 13 14 15 16 17 18 0
a 19 20 21 22 23 24 0
e 25 26 27 28 29 30 37 41 53 32 33 45 62 71 74 44 46 66 67 73 43 65 70 50 51 61 36 58 63 31 54 57 72 52 59 49 55 35 38 48 68 69 40 42 56 34 39 47 60 64 0
31 0
32 0
-25 33 0
25 -33 0
-26 34 0
26 -34 0
-27 35 0
27 -35 0
-28 36 0
28 -36 0
-29 37 0
29 -37 0
-30 38 0
30 -38 0
-1 13 0
-2 14 0
-3 15 0
-4 16 0
-5 17 0
-6 18 0
-13 25 0
-14 26 0
-15 27 0
-16 28 0
-17 29 0
-18 30 0
-1 -2 0
-1 -3 0
-1 -4 0
-1 -5 0
-1 -6 0
-2 -3 0
-2 -4 0
-2 -5 0
-2 -6 0
-3 -4 0
-3 -5 0
-3 -6 0
-4 -5 0
-4 -6 0
-5 -6 0
1 -13 2 -14 0
1 -13 3 -15 0
1 -13 4 -16 0
1 -13 5 -17 0
1 -13 6 -18 0
2 -14 3 -15 0
2 -14 4 -16 0
2 -14 5 -17 0
2 -14 6 -18 0
3 -15 4 -16 0
3 -15 5 -17 0
3 -15 6 -18 0
4 -16 5 -17 0
4 -16 6 -18 0
5 -17 6 -18 0
13 -25 14 -26 0
13 -25 15 -27 0
13 -25 16 -28 0
13 -25 17 -29 0
13 -25 18 -30 0
14 -26 15 -27 0
14 -26 16 -28 0
14 -26 17 -29 0
14 -26 18 -30 0
15 -27 16 -28 0
15 -27 17 -29 0
15 -27 18 -30 0
16 -28 17 -29 0
16 -28 18 -30 0
17 -29 18 -30 0
-39 7 0
-39 8 0
-40 7 0
-40 9 0
-41 7 0
-41 10 0
-42 7 0
-42 11 0
-43 7 0
-43 12 0
-44 8 0
-44 9 0
-45 8 0
-45 10 0
-46 8 0
-46 11 0
-47 8 0
-47 12 0
-48 9 0
-48 10 0
-49 9 0
-49 11 0
-50 9 0
-50 12 0
-51 10 0
-51 11 0
-52 10 0
-52 12 0
-53 11 0
-53 12 0
-54 19 0
-54 20 0
-55 19 0
-55 21 0
-56 19 0
-56 22 0
-57 19 0
-57 23 0
-58 19 0
-58 24 0
-59 20 0
-59 21 0
-60 20 0
-60 22 0
-61 20 0
-61 23 0
-62 20 0
-62 24 0
-63 21 0
-63 22 0
-64 21 0
-64 23 0
-65 21 0
-65 24 0
-66 22 0
-66 23 0
-67 22 0
-67 24 0
-68 23 0
-68 24 0
1 -7 -33 0
13 -19 -33 0
2 -8 -34 0
14 -20 -34 0
3 -9 -35 0
15 -21 -35 0
4 -10 -36 0
16 -22 -36 0
5 -11 -37 0
17 -23 -37 0
6 -12 -38 0
18 -24 -38 0
-69 33 0
-69 34 0
69 -33 -34 0
-70 33 0
-70 35 0
-70 36 0
70 -33 -35 -36 0
-71 37 0
-71 35 0
-71 34 0
71 -37 -35 -34 0
-72 37 0
-72 35 0
-72 36 0
72 -37 -35 -36 0
-73 69 70 71 72 0
-39 -74 0
-40 -74 0
-41 -74 0
-42 -74 0
-43 -74 0
-44 -74 0
-45 -74 0
-46 -74 0
-47 -74 0
-48 -74 0
-49 -74 0
-50 -74 0
-51 -74 0
-52 -74 0
-53 -74 0
-54 -74 0
-55 -74 0
-56 -74 0
-57 -74 0
-58 -74 0
-59 -74 0
-60 -74 0
-61 -74 0
-62 -74 0
-63 -74 0
-64 -74 0
-65 -74 0
-66 -74 0
-67 -74 0
-68 -74 0
74 39 40 41 42 43 44 45 46 47 48 49 50 51 52 53 54 55 56 57 58 59 60 61 62 63 64 65 66 67 68 0
73 -74 0
